c User generated cnf file
p cnf 10 17
5 -5 1 0 
3 5 -9 0 
3 1 -4 0 
4 -7 6 0 
8 2 -2 0 
2 -10 9 0 
6 -10 4 0 
6 4 -4 0 
9 7 -10 0 
7 7 -5 0 
8 -5 10 0 
1 10 -2 0 
8 -3 3 0 
4 -8 7 0 
3 10 -10 0 
4 -1 7 0 
1 4 -5 0 
